% Auto-generated by scripts/generate_dzn.py
% problem_type   = regex
% instance       = regex_86
% source_json    = instances_json/1_medium_blowup/regex_86.json
% blowup         = 5.454545454545454
% representation = DFA

mode = 0;

var_count = 18;
Q = 60;
S = 3;
q0 = 1;
F = {42, 43, 44, 45, 46, 47, 48, 49, 50, 51, 52, 53, 54, 55, 56, 57, 58, 59, 60};
d_dfa = array2d(1..60, 1..3, [
  1, 2, 1,
  1, 2, 3,
  4, 2, 1,
  5, 6, 5,
  7, 8, 7,
  7, 8, 9,
  10, 11, 10,
  10, 11, 12,
  13, 11, 10,
  14, 15, 14,
  14, 15, 16,
  17, 15, 14,
  18, 19, 18,
  20, 21, 20,
  20, 21, 22,
  23, 21, 20,
  24, 25, 24,
  26, 27, 26,
  26, 27, 28,
  29, 30, 29,
  29, 30, 31,
  32, 30, 29,
  33, 34, 33,
  35, 36, 35,
  35, 36, 37,
  38, 39, 38,
  38, 39, 40,
  41, 39, 38,
  42, 43, 42,
  42, 43, 44,
  45, 43, 42,
  46, 47, 46,
  48, 49, 48,
  48, 49, 50,
  51, 52, 51,
  51, 52, 53,
  54, 52, 51,
  55, 56, 55,
  55, 56, 57,
  58, 56, 55,
  59, 60, 59,
  1, 2, 1,
  1, 2, 3,
  4, 2, 1,
  5, 6, 5,
  7, 8, 7,
  7, 8, 9,
  10, 11, 10,
  10, 11, 12,
  13, 11, 10,
  14, 15, 14,
  14, 15, 16,
  17, 15, 14,
  18, 19, 18,
  20, 21, 20,
  20, 21, 22,
  23, 21, 20,
  24, 25, 24,
  26, 27, 26,
  26, 27, 28
]);
d_nfa = array2d(1..60, 1..3, [
  {}, {}, {},
  {}, {}, {},
  {}, {}, {},
  {}, {}, {},
  {}, {}, {},
  {}, {}, {},
  {}, {}, {},
  {}, {}, {},
  {}, {}, {},
  {}, {}, {},
  {}, {}, {},
  {}, {}, {},
  {}, {}, {},
  {}, {}, {},
  {}, {}, {},
  {}, {}, {},
  {}, {}, {},
  {}, {}, {},
  {}, {}, {},
  {}, {}, {},
  {}, {}, {},
  {}, {}, {},
  {}, {}, {},
  {}, {}, {},
  {}, {}, {},
  {}, {}, {},
  {}, {}, {},
  {}, {}, {},
  {}, {}, {},
  {}, {}, {},
  {}, {}, {},
  {}, {}, {},
  {}, {}, {},
  {}, {}, {},
  {}, {}, {},
  {}, {}, {},
  {}, {}, {},
  {}, {}, {},
  {}, {}, {},
  {}, {}, {},
  {}, {}, {},
  {}, {}, {},
  {}, {}, {},
  {}, {}, {},
  {}, {}, {},
  {}, {}, {},
  {}, {}, {},
  {}, {}, {},
  {}, {}, {},
  {}, {}, {},
  {}, {}, {},
  {}, {}, {},
  {}, {}, {},
  {}, {}, {},
  {}, {}, {},
  {}, {}, {},
  {}, {}, {},
  {}, {}, {},
  {}, {}, {},
  {}, {}, {}
]);
